c Qdimacs file from skolem function generator
p cnf 458 1402
c a 330 332 334 336 338 340 342 344 346 348 350 352 354 356 358 360 362 364 366 368 370 372 374 376 378 380 382 384 386 388 390 392 394 396 398 400 402 404 406 408 410 412 414 416 418 420 422 424 426 428 430 432 434 436 438 440 442 444 446 448 450 452 454 456 0
c e 331 333 335 337 339 341 343 345 347 349 351 353 355 357 359 361 363 365 367 369 371 373 375 377 379 381 383 385 387 389 391 393 395 397 399 401 403 405 407 409 411 413 415 417 419 421 423 425 427 429 431 433 435 437 439 441 443 445 447 449 451 453 455 457 1 2 3 4 5 6 7 8 9 10 11 12 13 14 15 16 17 18 19 20 21 22 23 24 25 26 27 28 29 30 31 32 33 34 35 36 37 38 39 40 41 42 43 44 45 46 47 48 49 50 51 52 53 54 55 56 57 58 59 60 61 62 63 64 65 66 67 68 69 70 71 72 73 74 75 76 77 78 79 80 81 82 83 84 85 86 87 88 89 90 91 92 93 94 95 96 97 98 99 100 101 102 103 104 105 106 107 108 109 110 111 112 113 114 115 116 117 118 119 120 121 122 123 124 125 126 127 128 129 130 131 132 133 134 135 136 137 138 139 140 141 142 143 144 145 146 147 148 149 150 151 152 153 154 155 156 157 158 159 160 161 162 163 164 165 166 167 168 169 170 171 172 173 174 175 176 177 178 179 180 181 182 183 184 185 186 187 188 189 190 191 192 193 194 195 196 197 198 199 200 201 202 203 204 205 206 207 208 209 210 211 212 213 214 215 216 217 218 219 220 221 222 223 224 225 226 227 228 229 230 231 232 233 234 235 236 237 238 239 240 241 242 243 244 245 246 247 248 249 250 251 252 253 254 255 256 257 258 259 260 261 262 263 264 265 266 267 268 269 270 271 272 273 274 275 276 277 278 279 280 281 282 283 284 285 286 287 288 289 290 291 292 293 294 295 296 297 298 299 300 301 302 303 304 305 306 307 308 309 310 311 312 313 314 315 316 317 318 319 320 321 322 323 324 325 326 327 328 329 458 0
4 5 136 138 -140 0
4 5 -136 -138 -140 0
-4 140 0
-4 -136 138 0
-4 -5 0
-4 136 -138 0
5 -6 -72 0
5 6 72 0
-5 6 -72 0
-5 -6 72 0
6 -7 -71 0
6 7 71 0
-6 7 -71 0
-6 -7 71 0
7 394 8 0
7 395 8 0
-7 -8 0
-7 -394 -395 0
8 394 -395 9 0
8 -394 395 9 0
-8 -9 0
-8 394 395 0
-8 -394 -395 0
9 396 10 0
9 397 10 0
-9 -10 0
-9 -396 -397 0
10 396 -397 11 0
10 -396 397 11 0
-10 -11 0
-10 396 397 0
-10 -396 -397 0
11 398 12 0
11 399 12 0
-11 -12 0
-11 -398 -399 0
12 13 -70 0
-12 -13 0
-12 70 0
13 400 14 0
13 401 14 0
-13 -14 0
-13 -400 -401 0
14 400 -401 15 0
14 -400 401 15 0
-14 -15 0
-14 400 401 0
-14 -400 -401 0
15 402 16 0
15 403 16 0
-15 -16 0
-15 -402 -403 0
16 402 -403 17 0
16 -402 403 17 0
-16 -17 0
-16 402 403 0
-16 -402 -403 0
17 404 18 0
17 405 18 0
-17 -18 0
-17 -404 -405 0
18 404 -405 19 0
18 -404 405 19 0
-18 -19 0
-18 404 405 0
-18 -404 -405 0
19 406 20 0
19 407 20 0
-19 -20 0
-19 -406 -407 0
20 406 -407 21 0
20 -406 407 21 0
-20 -21 0
-20 406 407 0
-20 -406 -407 0
21 408 22 0
21 409 22 0
-21 -22 0
-21 -408 -409 0
22 408 -409 23 0
22 -408 409 23 0
-22 -23 0
-22 408 409 0
-22 -408 -409 0
23 410 24 0
23 411 24 0
-23 -24 0
-23 -410 -411 0
24 410 -411 25 0
24 -410 411 25 0
-24 -25 0
-24 410 411 0
-24 -410 -411 0
25 412 26 0
25 413 26 0
-25 -26 0
-25 -412 -413 0
26 412 -413 27 0
26 -412 413 27 0
-26 -27 0
-26 412 413 0
-26 -412 -413 0
27 414 28 0
27 415 28 0
-27 -28 0
-27 -414 -415 0
28 414 -415 29 0
28 -414 415 29 0
-28 -29 0
-28 414 415 0
-28 -414 -415 0
29 416 30 0
29 417 30 0
-29 -30 0
-29 -416 -417 0
30 416 -417 31 0
30 -416 417 31 0
-30 -31 0
-30 416 417 0
-30 -416 -417 0
31 418 32 0
31 419 32 0
-31 -32 0
-31 -418 -419 0
32 418 -419 33 0
32 -418 419 33 0
-32 -33 0
-32 418 419 0
-32 -418 -419 0
33 420 34 0
33 421 34 0
-33 -34 0
-33 -420 -421 0
34 420 -421 35 0
34 -420 421 35 0
-34 -35 0
-34 420 421 0
-34 -420 -421 0
35 422 36 0
35 423 36 0
-35 -36 0
-35 -422 -423 0
36 422 -423 37 0
36 -422 423 37 0
-36 -37 0
-36 422 423 0
-36 -422 -423 0
37 424 38 0
37 425 38 0
-37 -38 0
-37 -424 -425 0
38 424 -425 39 0
38 -424 425 39 0
-38 -39 0
-38 424 425 0
-38 -424 -425 0
39 426 40 0
39 427 40 0
-39 -40 0
-39 -426 -427 0
40 426 -427 41 0
40 -426 427 41 0
-40 -41 0
-40 426 427 0
-40 -426 -427 0
41 428 42 0
41 429 42 0
-41 -42 0
-41 -428 -429 0
42 428 -429 43 0
42 -428 429 43 0
-42 -43 0
-42 428 429 0
-42 -428 -429 0
43 430 44 0
43 431 44 0
-43 -44 0
-43 -430 -431 0
44 45 -69 0
-44 -45 0
-44 69 0
45 432 46 0
45 433 46 0
-45 -46 0
-45 -432 -433 0
46 432 -433 47 0
46 -432 433 47 0
-46 -47 0
-46 432 433 0
-46 -432 -433 0
47 434 48 0
47 435 48 0
-47 -48 0
-47 -434 -435 0
48 434 -435 49 0
48 -434 435 49 0
-48 -49 0
-48 434 435 0
-48 -434 -435 0
49 436 50 0
49 437 50 0
-49 -50 0
-49 -436 -437 0
50 436 -437 51 0
50 -436 437 51 0
-50 -51 0
-50 436 437 0
-50 -436 -437 0
51 438 52 0
51 439 52 0
-51 -52 0
-51 -438 -439 0
52 53 -68 0
-52 -53 0
-52 68 0
53 440 54 0
53 441 54 0
-53 -54 0
-53 -440 -441 0
54 440 -441 55 0
54 -440 441 55 0
-54 -55 0
-54 440 441 0
-54 -440 -441 0
55 442 56 0
55 443 56 0
-55 -56 0
-55 -442 -443 0
56 57 -67 0
-56 -57 0
-56 67 0
57 444 58 0
57 445 58 0
-57 -58 0
-57 -444 -445 0
58 444 -445 59 0
58 -444 445 59 0
-58 -59 0
-58 444 445 0
-58 -444 -445 0
59 446 60 0
59 447 60 0
-59 -60 0
-59 -446 -447 0
60 446 -447 61 0
60 -446 447 61 0
-60 -61 0
-60 446 447 0
-60 -446 -447 0
61 448 62 0
61 449 62 0
-61 -62 0
-61 -448 -449 0
62 448 -449 63 0
62 -448 449 63 0
-62 -63 0
-62 448 449 0
-62 -448 -449 0
63 450 64 0
63 451 64 0
-63 -64 0
-63 -450 -451 0
64 450 -451 65 0
64 -450 451 65 0
-64 -65 0
-64 450 451 0
-64 -450 -451 0
65 452 66 0
65 453 66 0
65 452 453 0
-65 -452 -453 0
-65 -453 -66 0
-65 -452 -66 0
66 -454 -455 0
-66 454 0
-66 455 0
67 442 -443 0
67 -442 443 0
-67 -442 -443 0
-67 442 443 0
68 438 -439 0
68 -438 439 0
-68 -438 -439 0
-68 438 439 0
69 430 -431 0
69 -430 431 0
-69 -430 -431 0
-69 430 431 0
70 398 -399 0
70 -398 399 0
-70 -398 -399 0
-70 398 399 0
71 456 -457 0
71 -456 457 0
-71 -456 -457 0
-71 456 457 0
72 -73 -135 0
72 73 135 0
-72 73 -135 0
-72 -73 135 0
73 330 74 0
73 331 74 0
-73 -74 0
-73 -330 -331 0
74 330 -331 75 0
74 -330 331 75 0
-74 -75 0
-74 330 331 0
-74 -330 -331 0
75 332 76 0
75 333 76 0
-75 -76 0
-75 -332 -333 0
76 332 -333 77 0
76 -332 333 77 0
-76 -77 0
-76 332 333 0
-76 -332 -333 0
77 334 78 0
77 335 78 0
-77 -78 0
-77 -334 -335 0
78 334 -335 79 0
78 -334 335 79 0
-78 -79 0
-78 334 335 0
-78 -334 -335 0
79 336 80 0
79 337 80 0
-79 -80 0
-79 -336 -337 0
80 336 -337 81 0
80 -336 337 81 0
-80 -81 0
-80 336 337 0
-80 -336 -337 0
81 338 82 0
81 339 82 0
-81 -82 0
-81 -338 -339 0
82 338 -339 83 0
82 -338 339 83 0
-82 -83 0
-82 338 339 0
-82 -338 -339 0
83 340 84 0
83 341 84 0
-83 -84 0
-83 -340 -341 0
84 340 -341 85 0
84 -340 341 85 0
-84 -85 0
-84 340 341 0
-84 -340 -341 0
85 342 86 0
85 343 86 0
-85 -86 0
-85 -342 -343 0
86 342 -343 87 0
86 -342 343 87 0
-86 -87 0
-86 342 343 0
-86 -342 -343 0
87 344 88 0
87 345 88 0
-87 -88 0
-87 -344 -345 0
88 344 -345 89 0
88 -344 345 89 0
-88 -89 0
-88 344 345 0
-88 -344 -345 0
89 346 90 0
89 347 90 0
-89 -90 0
-89 -346 -347 0
90 346 -347 91 0
90 -346 347 91 0
-90 -91 0
-90 346 347 0
-90 -346 -347 0
91 348 92 0
91 349 92 0
-91 -92 0
-91 -348 -349 0
92 348 -349 93 0
92 -348 349 93 0
-92 -93 0
-92 348 349 0
-92 -348 -349 0
93 350 94 0
93 351 94 0
-93 -94 0
-93 -350 -351 0
94 350 -351 95 0
94 -350 351 95 0
-94 -95 0
-94 350 351 0
-94 -350 -351 0
95 352 96 0
95 353 96 0
-95 -96 0
-95 -352 -353 0
96 352 -353 97 0
96 -352 353 97 0
-96 -97 0
-96 352 353 0
-96 -352 -353 0
97 354 98 0
97 355 98 0
-97 -98 0
-97 -354 -355 0
98 354 -355 99 0
98 -354 355 99 0
-98 -99 0
-98 354 355 0
-98 -354 -355 0
99 356 100 0
99 357 100 0
-99 -100 0
-99 -356 -357 0
100 356 -357 101 0
100 -356 357 101 0
-100 -101 0
-100 356 357 0
-100 -356 -357 0
101 358 102 0
101 359 102 0
-101 -102 0
-101 -358 -359 0
102 358 -359 103 0
102 -358 359 103 0
-102 -103 0
-102 358 359 0
-102 -358 -359 0
103 360 104 0
103 361 104 0
-103 -104 0
-103 -360 -361 0
104 360 -361 105 0
104 -360 361 105 0
-104 -105 0
-104 360 361 0
-104 -360 -361 0
105 362 106 0
105 363 106 0
-105 -106 0
-105 -362 -363 0
106 362 -363 107 0
106 -362 363 107 0
-106 -107 0
-106 362 363 0
-106 -362 -363 0
107 364 108 0
107 365 108 0
-107 -108 0
-107 -364 -365 0
108 364 -365 109 0
108 -364 365 109 0
-108 -109 0
-108 364 365 0
-108 -364 -365 0
109 366 110 0
109 367 110 0
-109 -110 0
-109 -366 -367 0
110 366 -367 111 0
110 -366 367 111 0
-110 -111 0
-110 366 367 0
-110 -366 -367 0
111 368 112 0
111 369 112 0
-111 -112 0
-111 -368 -369 0
112 368 -369 113 0
112 -368 369 113 0
-112 -113 0
-112 368 369 0
-112 -368 -369 0
113 370 114 0
113 371 114 0
-113 -114 0
-113 -370 -371 0
114 370 -371 115 0
114 -370 371 115 0
-114 -115 0
-114 370 371 0
-114 -370 -371 0
115 372 116 0
115 373 116 0
-115 -116 0
-115 -372 -373 0
116 372 -373 117 0
116 -372 373 117 0
-116 -117 0
-116 372 373 0
-116 -372 -373 0
117 374 118 0
117 375 118 0
-117 -118 0
-117 -374 -375 0
118 374 -375 119 0
118 -374 375 119 0
-118 -119 0
-118 374 375 0
-118 -374 -375 0
119 376 120 0
119 377 120 0
-119 -120 0
-119 -376 -377 0
120 376 -377 121 0
120 -376 377 121 0
-120 -121 0
-120 376 377 0
-120 -376 -377 0
121 378 122 0
121 379 122 0
-121 -122 0
-121 -378 -379 0
122 378 -379 123 0
122 -378 379 123 0
-122 -123 0
-122 378 379 0
-122 -378 -379 0
123 380 124 0
123 381 124 0
-123 -124 0
-123 -380 -381 0
124 380 -381 125 0
124 -380 381 125 0
-124 -125 0
-124 380 381 0
-124 -380 -381 0
125 382 126 0
125 383 126 0
-125 -126 0
-125 -382 -383 0
126 127 -134 0
-126 -127 0
-126 134 0
127 384 128 0
127 385 128 0
-127 -128 0
-127 -384 -385 0
128 384 -385 129 0
128 -384 385 129 0
-128 -129 0
-128 384 385 0
-128 -384 -385 0
129 386 130 0
129 387 130 0
-129 -130 0
-129 -386 -387 0
130 131 -133 0
-130 -131 0
-130 133 0
131 388 132 0
131 389 132 0
131 388 389 0
-131 -388 -389 0
-131 -389 -132 0
-131 -388 -132 0
132 -390 -391 0
-132 390 0
-132 391 0
133 386 -387 0
133 -386 387 0
-133 -386 -387 0
-133 386 387 0
134 382 -383 0
134 -382 383 0
-134 -382 -383 0
-134 382 383 0
135 -392 -393 0
135 392 393 0
-135 392 -393 0
-135 -392 393 0
136 -75 -137 0
136 75 137 0
-136 75 -137 0
-136 -75 137 0
137 330 -331 0
137 -330 331 0
-137 -330 -331 0
-137 330 331 0
138 -9 -139 0
138 9 139 0
-138 9 -139 0
-138 -9 139 0
139 394 -395 0
139 -394 395 0
-139 -394 -395 0
-139 394 395 0
140 141 143 145 -149 0
140 -141 -143 145 -149 0
-140 -145 0
-140 141 -143 0
-140 149 0
-140 -141 143 0
141 -77 -142 0
141 77 142 0
-141 77 -142 0
-141 -77 142 0
142 332 -333 0
142 -332 333 0
-142 -332 -333 0
-142 332 333 0
143 -11 -144 0
143 11 144 0
-143 11 -144 0
-143 -11 144 0
144 396 -397 0
144 -396 397 0
-144 -396 -397 0
-144 396 397 0
145 146 -148 0
-145 -146 0
-145 148 0
146 -79 -147 0
146 79 147 0
-146 79 -147 0
-146 -79 147 0
147 334 -335 0
147 -334 335 0
-147 -334 -335 0
-147 334 335 0
148 -13 -70 0
148 13 70 0
-148 13 -70 0
-148 -13 70 0
149 150 151 153 -155 0
149 150 -151 -153 -155 0
-149 155 0
-149 -151 153 0
-149 -150 0
-149 151 -153 0
150 -146 148 0
-150 146 0
-150 -148 0
151 -81 -152 0
151 81 152 0
-151 81 -152 0
-151 -81 152 0
152 336 -337 0
152 -336 337 0
-152 -336 -337 0
-152 336 337 0
153 -15 -154 0
153 15 154 0
-153 15 -154 0
-153 -15 154 0
154 400 -401 0
154 -400 401 0
-154 -400 -401 0
-154 400 401 0
155 156 158 160 -165 0
155 -156 -158 160 -165 0
-155 -160 0
-155 156 -158 0
-155 165 0
-155 -156 158 0
156 -83 -157 0
156 83 157 0
-156 83 -157 0
-156 -83 157 0
157 338 -339 0
157 -338 339 0
-157 -338 -339 0
-157 338 339 0
158 -17 -159 0
158 17 159 0
-158 17 -159 0
-158 -17 159 0
159 402 -403 0
159 -402 403 0
-159 -402 -403 0
-159 402 403 0
160 161 -163 0
-160 -161 0
-160 163 0
161 -85 -162 0
161 85 162 0
-161 85 -162 0
-161 -85 162 0
162 340 -341 0
162 -340 341 0
-162 -340 -341 0
-162 340 341 0
163 -19 -164 0
163 19 164 0
-163 19 -164 0
-163 -19 164 0
164 404 -405 0
164 -404 405 0
-164 -404 -405 0
-164 404 405 0
165 166 167 169 -171 0
165 166 -167 -169 -171 0
-165 171 0
-165 -167 169 0
-165 -166 0
-165 167 -169 0
166 -161 163 0
-166 161 0
-166 -163 0
167 -87 -168 0
167 87 168 0
-167 87 -168 0
-167 -87 168 0
168 342 -343 0
168 -342 343 0
-168 -342 -343 0
-168 342 343 0
169 -21 -170 0
169 21 170 0
-169 21 -170 0
-169 -21 170 0
170 406 -407 0
170 -406 407 0
-170 -406 -407 0
-170 406 407 0
171 172 174 176 -181 0
171 -172 -174 176 -181 0
-171 -176 0
-171 172 -174 0
-171 181 0
-171 -172 174 0
172 -89 -173 0
172 89 173 0
-172 89 -173 0
-172 -89 173 0
173 344 -345 0
173 -344 345 0
-173 -344 -345 0
-173 344 345 0
174 -23 -175 0
174 23 175 0
-174 23 -175 0
-174 -23 175 0
175 408 -409 0
175 -408 409 0
-175 -408 -409 0
-175 408 409 0
176 177 -179 0
-176 -177 0
-176 179 0
177 -91 -178 0
177 91 178 0
-177 91 -178 0
-177 -91 178 0
178 346 -347 0
178 -346 347 0
-178 -346 -347 0
-178 346 347 0
179 -25 -180 0
179 25 180 0
-179 25 -180 0
-179 -25 180 0
180 410 -411 0
180 -410 411 0
-180 -410 -411 0
-180 410 411 0
181 182 183 185 -187 0
181 182 -183 -185 -187 0
-181 187 0
-181 -183 185 0
-181 -182 0
-181 183 -185 0
182 -177 179 0
-182 177 0
-182 -179 0
183 -93 -184 0
183 93 184 0
-183 93 -184 0
-183 -93 184 0
184 348 -349 0
184 -348 349 0
-184 -348 -349 0
-184 348 349 0
185 -27 -186 0
185 27 186 0
-185 27 -186 0
-185 -27 186 0
186 412 -413 0
186 -412 413 0
-186 -412 -413 0
-186 412 413 0
187 188 190 192 -197 0
187 -188 -190 192 -197 0
-187 -192 0
-187 188 -190 0
-187 197 0
-187 -188 190 0
188 -95 -189 0
188 95 189 0
-188 95 -189 0
-188 -95 189 0
189 350 -351 0
189 -350 351 0
-189 -350 -351 0
-189 350 351 0
190 -29 -191 0
190 29 191 0
-190 29 -191 0
-190 -29 191 0
191 414 -415 0
191 -414 415 0
-191 -414 -415 0
-191 414 415 0
192 193 -195 0
-192 -193 0
-192 195 0
193 -97 -194 0
193 97 194 0
-193 97 -194 0
-193 -97 194 0
194 352 -353 0
194 -352 353 0
-194 -352 -353 0
-194 352 353 0
195 -31 -196 0
195 31 196 0
-195 31 -196 0
-195 -31 196 0
196 416 -417 0
196 -416 417 0
-196 -416 -417 0
-196 416 417 0
197 198 199 201 -203 0
197 198 -199 -201 -203 0
-197 203 0
-197 -199 201 0
-197 -198 0
-197 199 -201 0
198 -193 195 0
-198 193 0
-198 -195 0
199 -99 -200 0
199 99 200 0
-199 99 -200 0
-199 -99 200 0
200 354 -355 0
200 -354 355 0
-200 -354 -355 0
-200 354 355 0
201 -33 -202 0
201 33 202 0
-201 33 -202 0
-201 -33 202 0
202 418 -419 0
202 -418 419 0
-202 -418 -419 0
-202 418 419 0
203 204 206 208 -213 0
203 -204 -206 208 -213 0
-203 -208 0
-203 204 -206 0
-203 213 0
-203 -204 206 0
204 -101 -205 0
204 101 205 0
-204 101 -205 0
-204 -101 205 0
205 356 -357 0
205 -356 357 0
-205 -356 -357 0
-205 356 357 0
206 -35 -207 0
206 35 207 0
-206 35 -207 0
-206 -35 207 0
207 420 -421 0
207 -420 421 0
-207 -420 -421 0
-207 420 421 0
208 209 -211 0
-208 -209 0
-208 211 0
209 -103 -210 0
209 103 210 0
-209 103 -210 0
-209 -103 210 0
210 358 -359 0
210 -358 359 0
-210 -358 -359 0
-210 358 359 0
211 -37 -212 0
211 37 212 0
-211 37 -212 0
-211 -37 212 0
212 422 -423 0
212 -422 423 0
-212 -422 -423 0
-212 422 423 0
213 214 215 217 -219 0
213 214 -215 -217 -219 0
-213 219 0
-213 -215 217 0
-213 -214 0
-213 215 -217 0
214 -209 211 0
-214 209 0
-214 -211 0
215 -105 -216 0
215 105 216 0
-215 105 -216 0
-215 -105 216 0
216 360 -361 0
216 -360 361 0
-216 -360 -361 0
-216 360 361 0
217 -39 -218 0
217 39 218 0
-217 39 -218 0
-217 -39 218 0
218 424 -425 0
218 -424 425 0
-218 -424 -425 0
-218 424 425 0
219 220 222 224 -229 0
219 -220 -222 224 -229 0
-219 -224 0
-219 220 -222 0
-219 229 0
-219 -220 222 0
220 -107 -221 0
220 107 221 0
-220 107 -221 0
-220 -107 221 0
221 362 -363 0
221 -362 363 0
-221 -362 -363 0
-221 362 363 0
222 -41 -223 0
222 41 223 0
-222 41 -223 0
-222 -41 223 0
223 426 -427 0
223 -426 427 0
-223 -426 -427 0
-223 426 427 0
224 225 -227 0
-224 -225 0
-224 227 0
225 -109 -226 0
225 109 226 0
-225 109 -226 0
-225 -109 226 0
226 364 -365 0
226 -364 365 0
-226 -364 -365 0
-226 364 365 0
227 -43 -228 0
227 43 228 0
-227 43 -228 0
-227 -43 228 0
228 428 -429 0
228 -428 429 0
-228 -428 -429 0
-228 428 429 0
229 230 231 233 -234 0
229 230 -231 -233 -234 0
-229 234 0
-229 -231 233 0
-229 -230 0
-229 231 -233 0
230 -225 227 0
-230 225 0
-230 -227 0
231 -111 -232 0
231 111 232 0
-231 111 -232 0
-231 -111 232 0
232 366 -367 0
232 -366 367 0
-232 -366 -367 0
-232 366 367 0
233 -45 -69 0
233 45 69 0
-233 45 -69 0
-233 -45 69 0
234 235 237 239 -244 0
234 -235 -237 239 -244 0
-234 -239 0
-234 235 -237 0
-234 244 0
-234 -235 237 0
235 -113 -236 0
235 113 236 0
-235 113 -236 0
-235 -113 236 0
236 368 -369 0
236 -368 369 0
-236 -368 -369 0
-236 368 369 0
237 -47 -238 0
237 47 238 0
-237 47 -238 0
-237 -47 238 0
238 432 -433 0
238 -432 433 0
-238 -432 -433 0
-238 432 433 0
239 240 -242 0
-239 -240 0
-239 242 0
240 -115 -241 0
240 115 241 0
-240 115 -241 0
-240 -115 241 0
241 370 -371 0
241 -370 371 0
-241 -370 -371 0
-241 370 371 0
242 -49 -243 0
242 49 243 0
-242 49 -243 0
-242 -49 243 0
243 434 -435 0
243 -434 435 0
-243 -434 -435 0
-243 434 435 0
244 245 246 248 -250 0
244 245 -246 -248 -250 0
-244 250 0
-244 -246 248 0
-244 -245 0
-244 246 -248 0
245 -240 242 0
-245 240 0
-245 -242 0
246 -117 -247 0
246 117 247 0
-246 117 -247 0
-246 -117 247 0
247 372 -373 0
247 -372 373 0
-247 -372 -373 0
-247 372 373 0
248 -51 -249 0
248 51 249 0
-248 51 -249 0
-248 -51 249 0
249 436 -437 0
249 -436 437 0
-249 -436 -437 0
-249 436 437 0
250 251 253 254 -259 0
250 -251 -253 254 -259 0
-250 -254 0
-250 251 -253 0
-250 259 0
-250 -251 253 0
251 -119 -252 0
251 119 252 0
-251 119 -252 0
-251 -119 252 0
252 374 -375 0
252 -374 375 0
-252 -374 -375 0
-252 374 375 0
253 -53 -68 0
253 53 68 0
-253 53 -68 0
-253 -53 68 0
254 255 -257 0
-254 -255 0
-254 257 0
255 -121 -256 0
255 121 256 0
-255 121 -256 0
-255 -121 256 0
256 376 -377 0
256 -376 377 0
-256 -376 -377 0
-256 376 377 0
257 -55 -258 0
257 55 258 0
-257 55 -258 0
-257 -55 258 0
258 440 -441 0
258 -440 441 0
-258 -440 -441 0
-258 440 441 0
259 260 261 263 -264 0
259 260 -261 -263 -264 0
-259 264 0
-259 -261 263 0
-259 -260 0
-259 261 -263 0
260 -255 257 0
-260 255 0
-260 -257 0
261 -123 -262 0
261 123 262 0
-261 123 -262 0
-261 -123 262 0
262 378 -379 0
262 -378 379 0
-262 -378 -379 0
-262 378 379 0
263 -57 -67 0
263 57 67 0
-263 57 -67 0
-263 -57 67 0
264 265 267 269 -273 0
264 -265 -267 269 -273 0
-264 -269 0
-264 265 -267 0
-264 273 0
-264 -265 267 0
265 -125 -266 0
265 125 266 0
-265 125 -266 0
-265 -125 266 0
266 380 -381 0
266 -380 381 0
-266 -380 -381 0
-266 380 381 0
267 -59 -268 0
267 59 268 0
-267 59 -268 0
-267 -59 268 0
268 444 -445 0
268 -444 445 0
-268 -444 -445 0
-268 444 445 0
269 270 -271 0
-269 -270 0
-269 271 0
270 -127 -134 0
270 127 134 0
-270 127 -134 0
-270 -127 134 0
271 -61 -272 0
271 61 272 0
-271 61 -272 0
-271 -61 272 0
272 446 -447 0
272 -446 447 0
-272 -446 -447 0
-272 446 447 0
273 274 275 277 -279 0
273 274 -275 -277 -279 0
-273 279 0
-273 -275 277 0
-273 -274 0
-273 275 -277 0
274 -270 271 0
-274 270 0
-274 -271 0
275 -129 -276 0
275 129 276 0
-275 129 -276 0
-275 -129 276 0
276 384 -385 0
276 -384 385 0
-276 -384 -385 0
-276 384 385 0
277 -63 -278 0
277 63 278 0
-277 63 -278 0
-277 -63 278 0
278 448 -449 0
278 -448 449 0
-278 -448 -449 0
-278 448 449 0
279 280 281 283 -288 0
279 -280 -281 283 -288 0
-279 -283 0
-279 280 -281 0
-279 288 0
-279 -280 281 0
280 -131 -133 0
280 131 133 0
-280 131 -133 0
-280 -131 133 0
281 -65 -282 0
281 65 282 0
-281 65 -282 0
-281 -65 282 0
282 450 -451 0
282 -450 451 0
-282 -450 -451 0
-282 450 451 0
283 284 -286 0
283 -284 286 0
-283 -284 -286 0
-283 284 286 0
284 132 -285 0
284 -132 285 0
-284 -132 -285 0
-284 132 285 0
285 388 -389 0
285 -388 389 0
-285 -388 -389 0
-285 388 389 0
286 66 -287 0
286 -66 287 0
-286 -66 -287 0
-286 66 287 0
287 452 -453 0
287 -452 453 0
-287 -452 -453 0
-287 452 453 0
288 -289 -290 0
288 289 290 0
-288 289 -290 0
-288 -289 290 0
289 390 -391 0
289 -390 391 0
-289 -390 -391 0
-289 390 391 0
290 454 -455 0
290 -454 455 0
-290 -454 -455 0
-290 454 455 0
291 283 289 290 -292 0
291 283 -289 -290 -292 0
-291 292 0
-291 -289 290 0
-291 -283 0
-291 289 -290 0
292 293 280 281 -294 0
292 293 -280 -281 -294 0
-292 294 0
-292 -280 281 0
-292 -293 0
-292 280 -281 0
293 -275 277 0
-293 275 0
-293 -277 0
294 270 271 295 -296 0
294 -270 -271 295 -296 0
-294 -295 0
-294 270 -271 0
-294 296 0
-294 -270 271 0
295 275 -277 0
-295 -275 0
-295 277 0
296 297 265 267 -298 0
296 297 -265 -267 -298 0
-296 298 0
-296 -265 267 0
-296 -297 0
-296 265 -267 0
297 -261 263 0
-297 261 0
-297 -263 0
298 255 257 299 -300 0
298 -255 -257 299 -300 0
-298 -299 0
-298 255 -257 0
-298 300 0
-298 -255 257 0
299 261 -263 0
-299 -261 0
-299 263 0
300 301 251 253 -302 0
300 301 -251 -253 -302 0
-300 302 0
-300 -251 253 0
-300 -301 0
-300 251 -253 0
301 -246 248 0
-301 246 0
-301 -248 0
302 240 242 303 -304 0
302 -240 -242 303 -304 0
-302 -303 0
-302 240 -242 0
-302 304 0
-302 -240 242 0
303 246 -248 0
-303 -246 0
-303 248 0
304 305 235 237 -306 0
304 305 -235 -237 -306 0
-304 306 0
-304 -235 237 0
-304 -305 0
-304 235 -237 0
305 -231 233 0
-305 231 0
-305 -233 0
306 225 227 307 -308 0
306 -225 -227 307 -308 0
-306 -307 0
-306 225 -227 0
-306 308 0
-306 -225 227 0
307 231 -233 0
-307 -231 0
-307 233 0
308 309 220 222 -310 0
308 309 -220 -222 -310 0
-308 310 0
-308 -220 222 0
-308 -309 0
-308 220 -222 0
309 -215 217 0
-309 215 0
-309 -217 0
310 209 211 311 -312 0
310 -209 -211 311 -312 0
-310 -311 0
-310 209 -211 0
-310 312 0
-310 -209 211 0
311 215 -217 0
-311 -215 0
-311 217 0
312 313 204 206 -314 0
312 313 -204 -206 -314 0
-312 314 0
-312 -204 206 0
-312 -313 0
-312 204 -206 0
313 -199 201 0
-313 199 0
-313 -201 0
314 193 195 315 -316 0
314 -193 -195 315 -316 0
-314 -315 0
-314 193 -195 0
-314 316 0
-314 -193 195 0
315 199 -201 0
-315 -199 0
-315 201 0
316 317 188 190 -318 0
316 317 -188 -190 -318 0
-316 318 0
-316 -188 190 0
-316 -317 0
-316 188 -190 0
317 -183 185 0
-317 183 0
-317 -185 0
318 177 179 319 -320 0
318 -177 -179 319 -320 0
-318 -319 0
-318 177 -179 0
-318 320 0
-318 -177 179 0
319 183 -185 0
-319 -183 0
-319 185 0
320 321 172 174 -322 0
320 321 -172 -174 -322 0
-320 322 0
-320 -172 174 0
-320 -321 0
-320 172 -174 0
321 -167 169 0
-321 167 0
-321 -169 0
322 161 163 323 -324 0
322 -161 -163 323 -324 0
-322 -323 0
-322 161 -163 0
-322 324 0
-322 -161 163 0
323 167 -169 0
-323 -167 0
-323 169 0
324 325 156 158 -326 0
324 325 -156 -158 -326 0
-324 326 0
-324 -156 158 0
-324 -325 0
-324 156 -158 0
325 -151 153 0
-325 151 0
-325 -153 0
326 146 148 327 -328 0
326 -146 -148 327 -328 0
-326 -327 0
-326 146 -148 0
-326 328 0
-326 -146 148 0
327 151 -153 0
-327 -151 0
-327 153 0
328 -141 -143 -329 0
328 141 143 -329 0
-328 329 0
-328 -141 143 0
-328 141 -143 0
329 5 -136 -138 0
329 5 136 138 0
-329 -5 0
-329 -136 138 0
-329 136 -138 0
458 0
2 -4 0
-2 4 0
3 -291 0
-3 291 0
3 0

